attachment/milp/2-tiling/tiling-medium.dat
data;

param Width := 10;
param Height := 10;

end;
