attachment/milp/2-tiling/tiling-medium.log
GLPSOL: GLPK LP/MIP Solver, v4.65
Parameter(s) specified in the command line:
 -m tiling.mod -d tiling-medium.dat --log tiling-medium.log
Reading model section from tiling.mod...
40 lines were read
Reading data section from tiling-medium.dat...
6 lines were read
Generating No_Overlap...
Generating Number_of_Crosses...
Model has been successfully generated
GLPK Integer Optimizer, v4.65
101 rows, 164 columns, 484 non-zeros
164 integer variables, all of which are binary
Preprocessing...
96 rows, 160 columns, 416 non-zeros
160 integer variables, all of which are binary
Scaling...
 A: min|aij| =  1.000e+00  max|aij| =  1.000e+00  ratio =  1.000e+00
Problem data seem to be well scaled
Constructing initial basis...
Size of triangular part is 96
Solving LP relaxation...
GLPK Simplex Optimizer, v4.65
96 rows, 160 columns, 416 non-zeros
*     0: obj =  -0.000000000e+00 inf =   0.000e+00 (64)
*    95: obj =   1.481481481e+01 inf =   0.000e+00 (0)
OPTIMAL LP SOLUTION FOUND
Integer optimization begins...
Long-step dual simplex will be used
+    95: mip =     not found yet <=              +inf        (1; 0)
+   190: >>>>>   1.300000000e+01 <=   1.400000000e+01   7.7% (14; 0)
+   688: mip =   1.300000000e+01 <=     tree is empty   0.0% (0; 53)
INTEGER OPTIMAL SOLUTION FOUND
Time used:   0.1 secs
Memory used: 0.6 Mb (597565 bytes)
Max. Cross Tiles (10x10): 13
.+...+..+.
+#+.+#++#+
.++..+.++.
.+#+.++#+.
..+++#+++.
.++#++++#+
+#++.+#++.
.++..++.+.
.+#++#++#+
..+..+..+.
Model has been successfully processed
